w = 17;
n = 12;
measures = [|4, 14,
|7, 6,
|4, 8,
|3, 9,
|3, 8,
|3, 7,
|7, 3,
|3, 6,
|3, 5,
|3, 4,
|4, 3,
|3, 3,
|];
initial_x = [0, 4, 11, 0, 3, 6, 9, 0, 3, 6, 9, 13];
initial_y = [0, 0, 0, 14, 14, 14, 14, 23, 23, 23, 23, 23];